c 9th DIMACS Implementation Challenge: Shortest Paths
c http://www.dis.uniroma1.it/~challenge9
c Random4-C family ss problem instance
c
p aux sp ss 10
c graph contains 64 nodes
c file contains 10 lines
c
s 59
s 9
s 58
s 7
s 32
s 47
s 1
s 3
s 59
s 24
